103 6
17 18 18 18 15 16
1 0 0 0 0 0 0 3 2 3 4
7 6 10 8 9 1 3 4 5 6 7 8
1 9 9 3 7 7 2 4 103 6 7 8
7 9 8 7 6 4 10 4 5 6 7 8
4 3 5 8 2 1 10 2 9 12
6 9 6 1 6 2 8 3 9 10 11
8 6 3 2 6 2 7 2 9 10
7 6 8 3 9 6 6 3 9 11 12
5 7 1 4 4 2 2 4 13 14 15 16
6 3 1 6 6 6 10 4 13 14 15 16
10 9 10 7 3 1 2 2 13 16
12 2 4 7 9 7 10 2 15 16
3 8 1 8 2 4 10 2 17 19
4 3 8 6 5 4 8 4 17 18 19 20
9 1 9 6 6 1 2 3 17 18 20
8 7 8 8 8 9 6 3 17 18 20
8 8 6 5 10 6 2 3 22 23 24
1 3 5 10 5 10 8 4 21 22 23 24
7 3 3 6 9 3 7 3 21 22 23
3 6 5 10 6 8 3 4 21 22 23 24
8 3 10 7 3 7 8 3 26 27 28
8 10 5 2 2 7 4 3 25 26 28
6 1 4 3 6 7 1 2 27 28
3 10 8 1 7 1 5 4 25 26 27 28
6 3 5 6 9 7 7 2 30 32
1 2 9 1 8 4 9 2 30 32
2 1 4 5 7 8 5 4 29 30 31 32
6 8 4 2 3 5 1 3 29 31 32
5 8 1 7 10 5 7 3 33 34 35
3 4 6 10 5 5 8 1 33
8 3 5 7 8 8 8 3 33 34 35
8 9 10 7 4 4 10 3 33 35 36
10 3 5 9 3 1 5 3 37 38 39
4 8 8 5 9 4 9 3 37 38 39
3 3 6 6 3 3 3 3 37 38 39
8 6 2 1 10 3 10 4 37 38 39 40
3 5 1 6 4 3 6 4 41 42 43 44
9 7 5 7 8 3 3 3 41 43 44
8 3 5 4 3 4 3 3 41 42 44
10 4 9 3 6 9 1 4 41 42 43 44
10 2 9 3 5 7 10 4 45 46 47 48
10 3 5 10 8 9 9 3 45 46 47
2 1 3 8 3 10 2 3 45 47 48
3 7 2 4 3 6 7 3 45 46 47
2 2 3 5 2 10 4 2 49 50
4 7 7 10 4 4 1 3 49 50 51
3 1 9 3 8 1 2 3 49 51 52
7 7 8 5 8 3 3 3 49 51 52
6 7 9 10 9 4 9 3 54 55 56
9 1 10 9 10 6 5 2 54 56
6 8 6 8 10 4 3 4 53 54 55 56
4 9 9 1 1 1 4 4 53 54 55 56
5 9 8 2 6 2 1 4 57 58 59 60
5 10 10 6 9 3 5 4 57 58 59 60
4 6 10 8 1 7 1 4 57 58 59 60
2 9 4 5 6 1 1 4 57 58 59 60
6 10 1 1 7 3 6 4 61 62 63 64
7 6 4 8 8 5 1 3 61 62 64
1 10 8 10 7 5 1 3 61 62 63
10 10 4 4 8 10 4 3 61 62 64
1 1 1 9 3 2 4 4 65 66 67 68
10 9 7 10 10 5 1 3 65 66 67
4 1 1 2 6 5 9 4 65 66 67 68
3 3 9 1 4 7 5 4 65 66 67 68
6 7 9 8 4 4 6 4 69 70 71 72
10 9 2 9 2 2 3 3 69 70 72
2 1 9 7 1 6 9 4 69 70 71 72
2 8 3 4 2 5 6 4 69 70 71 72
10 7 8 4 7 9 2 3 73 74 76
10 7 1 5 7 4 1 4 73 74 75 76
3 8 2 4 4 1 5 3 73 74 75
4 9 2 7 6 2 6 4 73 74 75 76
9 5 4 1 4 3 10 3 77 78 79
8 1 9 7 8 9 6 4 77 78 79 80
3 1 9 9 3 6 6 4 77 78 79 80
7 2 10 6 3 2 8 4 77 78 79 80
6 9 5 10 6 9 9 4 81 82 83 84
9 3 2 4 10 6 1 4 81 82 83 84
9 2 7 2 6 7 10 4 81 82 83 84
5 1 6 5 4 3 1 4 81 82 83 84
3 10 2 3 2 4 2 4 85 86 87 88
6 7 9 8 9 1 9 3 86 87 88
2 6 8 4 4 4 8 4 85 86 87 88
5 8 10 6 9 1 5 4 85 86 87 88
5 4 3 5 4 3 2 2 89 91
1 4 8 9 2 5 6 3 89 90 91
9 9 2 1 10 6 8 3 89 91 92
10 8 1 1 1 8 7 3 89 90 91
3 7 8 6 4 4 2 3 94 95 96
5 2 2 7 3 10 5 3 93 95 96
9 9 3 6 1 6 9 3 94 95 96
9 7 9 10 10 1 10 3 94 95 96
4 2 2 2 1 10 5 3 97 98 100
7 3 4 10 6 8 2 3 97 98 100
10 6 9 4 2 6 4 4 97 98 99 100
9 7 10 10 8 9 6 3 97 98 99
5 9 2 10 5 9 3 1 101
7 7 7 8 10 3 4 1 102
1 10 3 9 3 1 7 1 102
7 7 3 6 10 7 5 1 101
7 7 6 9 10 4 3 1 103
2 4 6 7 10 8 5 1 103
0 0 0 0 0 0 0 0
